p cnf 18 19
-1 6 18 0 
-2 18 0 
-3 -4 18 0 
-5 18 0 
-6 1 18 0 
-7 18 0 
-8 18 0 
-9 -8 18 0 
-4 18 0 
-10 -11 18 0 
-12 18 0 
-13 18 0 
-10 -14 -12 18 0 
-2 -4 18 0 
-15 -5 18 0 
-2 -15 -16 18 0 
-17 18 0 
-9 -15 18 0 
-2 -15 -12 18 0 
